Minimize
  x_northern_factory + x_western_factory
Subject To
  c1: 800 x_northern_factory + 650 x_western_factory >= 800,000
  c2: 700 x_northern_factory + 750 x_western_factory >= 700,000
  c3: 40 x_northern_factory + 35 x_western_factory <= 60,000
End